
  12    4
  10   10   10   10

   0   0   0   0   0   3 2 3 4 
   8  10  10  10  10   2 6 5 
   4  10  10  10  10   2 6 5 
  10  10  10  10  10   1 5 
   7  10  10  10  10   2 8 7 
   8  10  10  10  10   2 8 7 
  10  10  10  10  10   2 11 9 
   9  10  10  10  10   2 11 10 
   5  10  10  10  10   1 10 
  10  10  10  10  10   1 12
   2  10  10  10  10   1 12
   0   0   0   0   0   0 
